c CNF file corresponding to a (partial) station packing problem.
p cnf 6284 229
1 2 3 4 5 6 7 8 9 10 11 12 13 14 0
-1 -2 0
-1 -3 0
-1 -4 0
-1 -5 0
-1 -6 0
-1 -7 0
-1 -8 0
-1 -9 0
-1 -10 0
-1 -11 0
-1 -12 0
-1 -13 0
-1 -14 0
-2 -3 0
-2 -4 0
-2 -5 0
-2 -6 0
-2 -7 0
-2 -8 0
-2 -9 0
-2 -10 0
-2 -11 0
-2 -12 0
-2 -13 0
-2 -14 0
-3 -4 0
-3 -5 0
-3 -6 0
-3 -7 0
-3 -8 0
-3 -9 0
-3 -10 0
-3 -11 0
-3 -12 0
-3 -13 0
-3 -14 0
-4 -5 0
-4 -6 0
-4 -7 0
-4 -8 0
-4 -9 0
-4 -10 0
-4 -11 0
-4 -12 0
-4 -13 0
-4 -14 0
-5 -6 0
-5 -7 0
-5 -8 0
-5 -9 0
-5 -10 0
-5 -11 0
-5 -12 0
-5 -13 0
-5 -14 0
-6 -7 0
-6 -8 0
-6 -9 0
-6 -10 0
-6 -11 0
-6 -12 0
-6 -13 0
-6 -14 0
-7 -8 0
-7 -9 0
-7 -10 0
-7 -11 0
-7 -12 0
-7 -13 0
-7 -14 0
-8 -9 0
-8 -10 0
-8 -11 0
-8 -12 0
-8 -13 0
-8 -14 0
-9 -10 0
-9 -11 0
-9 -12 0
-9 -13 0
-9 -14 0
-10 -11 0
-10 -12 0
-10 -13 0
-10 -14 0
-11 -12 0
-11 -13 0
-11 -14 0
-12 -13 0
-12 -14 0
-13 -14 0
6268 6269 6270 6271 6272 6273 6274 6275 6276 6277 6278 6279 6280 6281 6282 6283 6284 0
-6268 -6269 0
-6268 -6270 0
-6268 -6271 0
-6268 -6272 0
-6268 -6273 0
-6268 -6274 0
-6268 -6275 0
-6268 -6276 0
-6268 -6277 0
-6268 -6278 0
-6268 -6279 0
-6268 -6280 0
-6268 -6281 0
-6268 -6282 0
-6268 -6283 0
-6268 -6284 0
-6269 -6270 0
-6269 -6271 0
-6269 -6272 0
-6269 -6273 0
-6269 -6274 0
-6269 -6275 0
-6269 -6276 0
-6269 -6277 0
-6269 -6278 0
-6269 -6279 0
-6269 -6280 0
-6269 -6281 0
-6269 -6282 0
-6269 -6283 0
-6269 -6284 0
-6270 -6271 0
-6270 -6272 0
-6270 -6273 0
-6270 -6274 0
-6270 -6275 0
-6270 -6276 0
-6270 -6277 0
-6270 -6278 0
-6270 -6279 0
-6270 -6280 0
-6270 -6281 0
-6270 -6282 0
-6270 -6283 0
-6270 -6284 0
-6271 -6272 0
-6271 -6273 0
-6271 -6274 0
-6271 -6275 0
-6271 -6276 0
-6271 -6277 0
-6271 -6278 0
-6271 -6279 0
-6271 -6280 0
-6271 -6281 0
-6271 -6282 0
-6271 -6283 0
-6271 -6284 0
-6272 -6273 0
-6272 -6274 0
-6272 -6275 0
-6272 -6276 0
-6272 -6277 0
-6272 -6278 0
-6272 -6279 0
-6272 -6280 0
-6272 -6281 0
-6272 -6282 0
-6272 -6283 0
-6272 -6284 0
-6273 -6274 0
-6273 -6275 0
-6273 -6276 0
-6273 -6277 0
-6273 -6278 0
-6273 -6279 0
-6273 -6280 0
-6273 -6281 0
-6273 -6282 0
-6273 -6283 0
-6273 -6284 0
-6274 -6275 0
-6274 -6276 0
-6274 -6277 0
-6274 -6278 0
-6274 -6279 0
-6274 -6280 0
-6274 -6281 0
-6274 -6282 0
-6274 -6283 0
-6274 -6284 0
-6275 -6276 0
-6275 -6277 0
-6275 -6278 0
-6275 -6279 0
-6275 -6280 0
-6275 -6281 0
-6275 -6282 0
-6275 -6283 0
-6275 -6284 0
-6276 -6277 0
-6276 -6278 0
-6276 -6279 0
-6276 -6280 0
-6276 -6281 0
-6276 -6282 0
-6276 -6283 0
-6276 -6284 0
-6277 -6278 0
-6277 -6279 0
-6277 -6280 0
-6277 -6281 0
-6277 -6282 0
-6277 -6283 0
-6277 -6284 0
-6278 -6279 0
-6278 -6280 0
-6278 -6281 0
-6278 -6282 0
-6278 -6283 0
-6278 -6284 0
-6279 -6280 0
-6279 -6281 0
-6279 -6282 0
-6279 -6283 0
-6279 -6284 0
-6280 -6281 0
-6280 -6282 0
-6280 -6283 0
-6280 -6284 0
-6281 -6282 0
-6281 -6283 0
-6281 -6284 0
-6282 -6283 0
-6282 -6284 0
-6283 -6284 0
